410.56
410.28
407.27
407.27
403.67
403.36
402.80
402.75
399.40
398.76
394.78
391.67
390.86
390.12
388.56
385.68
385.09
383.70
382.14
381.17
379.46
378.25
375.65
375.65
373.95
372.78
372.57
371.79
370.76
370.53
368.11
365.59
364.94
364.65
364.36
362.89
362.10
360.75
360.68
360.48
358.15
357.44
356.35
354.94
354.57
354.37
354.34
353.42
352.45
351.96
350.44
349.62
349.09
347.60
347.56
347.52
346.16
345.11
344.77
344.38
343.32
342.97
342.71
342.20
341.47
341.47
341.12
339.38
338.59
338.17
336.47
336.19
335.81
335.59
335.29
334.86
334.31
333.94
333.55
332.50
332.50
331.31
330.44
329.69
328.82
328.29
328.16
327.88
327.14
326.98
326.48
326.24
324.97
324.41
324.04
323.61
323.25
322.80
322.03
321.81
